Version identifier: 22.1.0.0 | 2022-03-09 | 1a383f8ce
CPXPARAM_Threads                                 1
CPXPARAM_MIP_Strategy_VariableSelect             3
CPXPARAM_TimeLimit                               599.99602574200003
Tried aggregator 1 time.
MIP Presolve eliminated 13 rows and 0 columns.
MIP Presolve modified 1 coefficients.
Reduced MIP has 918 rows, 3775 columns, and 40712 nonzeros.
Reduced MIP has 3775 binaries, 0 generals, 0 SOSs, and 0 indicators.
Presolve time = 0.03 sec. (19.86 ticks)
Probing time = 0.01 sec. (4.45 ticks)
Tried aggregator 1 time.
Detecting symmetries...
Reduced MIP has 918 rows, 3775 columns, and 40712 nonzeros.
Reduced MIP has 3775 binaries, 0 generals, 0 SOSs, and 0 indicators.
Presolve time = 0.03 sec. (24.18 ticks)
Probing time = 0.01 sec. (4.45 ticks)
Clique table members: 598.
MIP emphasis: balance optimality and feasibility.
MIP search method: dynamic search.
Parallel mode: none, using 1 thread.
Root relaxation solution time = 0.08 sec. (79.72 ticks)

        Nodes                                         Cuts/
   Node  Left     Objective  IInf  Best Integer    Best Bound    ItCnt     Gap

      0     0        0.0000   437                      0.0000     1002         
*     0+    0                            0.0000        0.0000             0.00%
      0     0        cutoff              0.0000        0.0000     1002    0.00%
Elapsed time = 0.50 sec. (375.32 ticks, tree = 0.01 MB, solutions = 1)

Root node processing (before b&c):
  Real time             =    0.50 sec. (375.44 ticks)
Sequential b&c:
  Real time             =    0.00 sec. (0.00 ticks)
                          ------------
Total (root+branch&cut) =    0.50 sec. (375.44 ticks)
Version identifier: 22.1.0.0 | 2022-03-09 | 1a383f8ce
CPXPARAM_Threads                                 1
CPXPARAM_MIP_Strategy_VariableSelect             3
CPXPARAM_TimeLimit                               599.46522317400002
Tried aggregator 1 time.
MIP Presolve eliminated 13 rows and 0 columns.
MIP Presolve modified 1 coefficients.
Reduced MIP has 1368 rows, 5650 columns, and 61262 nonzeros.
Reduced MIP has 5650 binaries, 0 generals, 0 SOSs, and 0 indicators.
Presolve time = 0.04 sec. (29.42 ticks)
Probing time = 0.01 sec. (5.27 ticks)
Tried aggregator 1 time.
Detecting symmetries...
Reduced MIP has 1368 rows, 5650 columns, and 61262 nonzeros.
Reduced MIP has 5650 binaries, 0 generals, 0 SOSs, and 0 indicators.
Presolve time = 0.04 sec. (36.16 ticks)
Probing time = 0.01 sec. (5.27 ticks)
Clique table members: 898.
MIP emphasis: balance optimality and feasibility.
MIP search method: dynamic search.
Parallel mode: none, using 1 thread.
Root relaxation solution time = 0.61 sec. (628.68 ticks)

        Nodes                                         Cuts/
   Node  Left     Objective  IInf  Best Integer    Best Bound    ItCnt     Gap

      0     0        0.0000   961                      0.0000     3116         
*     0+    0                            0.0000        0.0000             0.00%
      0     0        cutoff              0.0000        0.0000     3116    0.00%
Elapsed time = 1.68 sec. (1635.14 ticks, tree = 0.01 MB, solutions = 1)

Root node processing (before b&c):
  Real time             =    1.68 sec. (1635.31 ticks)
Sequential b&c:
  Real time             =    0.00 sec. (0.00 ticks)
                          ------------
Total (root+branch&cut) =    1.68 sec. (1635.31 ticks)
Version identifier: 22.1.0.0 | 2022-03-09 | 1a383f8ce
CPXPARAM_Threads                                 1
CPXPARAM_MIP_Strategy_VariableSelect             3
CPXPARAM_TimeLimit                               597.74833744099999
Tried aggregator 1 time.
MIP Presolve eliminated 13 rows and 0 columns.
MIP Presolve modified 1 coefficients.
Reduced MIP has 1590 rows, 6575 columns, and 71400 nonzeros.
Reduced MIP has 6575 binaries, 0 generals, 0 SOSs, and 0 indicators.
Presolve time = 0.04 sec. (34.16 ticks)
Probing time = 0.01 sec. (5.66 ticks)
Tried aggregator 1 time.
Detecting symmetries...
Reduced MIP has 1590 rows, 6575 columns, and 71400 nonzeros.
Reduced MIP has 6575 binaries, 0 generals, 0 SOSs, and 0 indicators.
Presolve time = 0.05 sec. (42.08 ticks)
Probing time = 0.01 sec. (5.66 ticks)
Clique table members: 1046.
MIP emphasis: balance optimality and feasibility.
MIP search method: dynamic search.
Parallel mode: none, using 1 thread.
Root relaxation solution time = 0.82 sec. (849.86 ticks)

        Nodes                                         Cuts/
   Node  Left     Objective  IInf  Best Integer    Best Bound    ItCnt     Gap

      0     0        0.0000  1085                      0.0000     3605         
*     0+    0                            0.0000        0.0000             0.00%
      0     0        cutoff              0.0000        0.0000     3605    0.00%
Elapsed time = 3.67 sec. (3799.87 ticks, tree = 0.01 MB, solutions = 1)

Root node processing (before b&c):
  Real time             =    3.67 sec. (3800.07 ticks)
Sequential b&c:
  Real time             =    0.00 sec. (0.00 ticks)
                          ------------
Total (root+branch&cut) =    3.67 sec. (3800.07 ticks)
Version identifier: 22.1.0.0 | 2022-03-09 | 1a383f8ce
CPXPARAM_Threads                                 1
CPXPARAM_MIP_Strategy_VariableSelect             3
CPXPARAM_TimeLimit                               594.04084850499999
Tried aggregator 1 time.
MIP Presolve eliminated 13 rows and 0 columns.
MIP Presolve modified 1 coefficients.
Reduced MIP has 1704 rows, 7050 columns, and 76606 nonzeros.
Reduced MIP has 7050 binaries, 0 generals, 0 SOSs, and 0 indicators.
Presolve time = 0.05 sec. (36.59 ticks)
Probing time = 0.01 sec. (5.85 ticks)
Tried aggregator 1 time.
Detecting symmetries...
Reduced MIP has 1704 rows, 7050 columns, and 76606 nonzeros.
Reduced MIP has 7050 binaries, 0 generals, 0 SOSs, and 0 indicators.
Presolve time = 0.05 sec. (45.12 ticks)
Probing time = 0.01 sec. (5.85 ticks)
Clique table members: 1122.
MIP emphasis: balance optimality and feasibility.
MIP search method: dynamic search.
Parallel mode: none, using 1 thread.
Root relaxation solution time = 1.12 sec. (1178.32 ticks)

        Nodes                                         Cuts/
   Node  Left     Objective  IInf  Best Integer    Best Bound    ItCnt     Gap

      0     0        0.0000  1212                      0.0000     4323         
      0     0        0.0000   206                 ZeroHalf: 1     4768         
      0     0        0.0000   399                    Cuts: 66     6172         
      0     0        0.0000   145                    Cuts: 10     6688         
      0     0        0.0000   270                    Cuts: 34     7907         
*     0+    0                            0.0000        0.0000             0.00%
      0     0        cutoff              0.0000        0.0000     7907    0.00%
Elapsed time = 25.63 sec. (29865.16 ticks, tree = 0.01 MB, solutions = 1)

Clique cuts applied:  8
Zero-half cuts applied:  33
Lift and project cuts applied:  2
Gomory fractional cuts applied:  1

Root node processing (before b&c):
  Real time             =   25.63 sec. (29865.37 ticks)
Sequential b&c:
  Real time             =    0.00 sec. (0.00 ticks)
                          ------------
Total (root+branch&cut) =   25.63 sec. (29865.37 ticks)
Version identifier: 22.1.0.0 | 2022-03-09 | 1a383f8ce
CPXPARAM_Threads                                 1
CPXPARAM_MIP_Strategy_VariableSelect             3
CPXPARAM_TimeLimit                               568.37251990799996
Tried aggregator 1 time.
MIP Presolve eliminated 13 rows and 0 columns.
MIP Presolve modified 1 coefficients.
Reduced MIP has 1758 rows, 7275 columns, and 79072 nonzeros.
Reduced MIP has 7275 binaries, 0 generals, 0 SOSs, and 0 indicators.
Presolve time = 0.05 sec. (37.71 ticks)
Probing time = 0.01 sec. (5.96 ticks)
Tried aggregator 1 time.
Detecting symmetries...
Reduced MIP has 1758 rows, 7275 columns, and 79072 nonzeros.
Reduced MIP has 7275 binaries, 0 generals, 0 SOSs, and 0 indicators.
Presolve time = 0.06 sec. (46.53 ticks)
Probing time = 0.01 sec. (5.96 ticks)
Clique table members: 1158.
MIP emphasis: balance optimality and feasibility.
MIP search method: dynamic search.
Parallel mode: none, using 1 thread.
Root relaxation solution time = 1.37 sec. (1453.17 ticks)

        Nodes                                         Cuts/
   Node  Left     Objective  IInf  Best Integer    Best Bound    ItCnt     Gap

      0     0        0.0000  1264                      0.0000     4888         
      0     0        0.0000   273                     Cuts: 7     6657         
      0     2        0.0000   180                      0.0000     6657         
Elapsed time = 22.10 sec. (23452.44 ticks, tree = 0.01 MB, solutions = 0)
      1     3        0.0000   354                      0.0000    15685         
      2     4        0.0000   334                      0.0000    17566         
      3     5        0.0000   332                      0.0000    17743         
      4     6        0.0000   739                      0.0000    22452         
      6     8        0.0000   672                      0.0000    26344         
      7     9        0.0000   632                      0.0000    26782         
      8    10        0.0000   675                      0.0000    27783         
     10    12        0.0000   496                      0.0000    30406         
     11    13        0.0000   834                      0.0000    36223         
     14    16        0.0000  1183                      0.0000    38016         
Elapsed time = 33.83 sec. (35935.86 ticks, tree = 0.07 MB, solutions = 0)
     17    19        0.0000  1232                      0.0000    40817         
     20    22        0.0000   707                      0.0000    43545         
     21    23        0.0000   906                      0.0000    48123         
     25    27        0.0000   790                      0.0000    50959         
     28    30        0.0000   728                      0.0000    51613         
     30    32        0.0000   728                      0.0000    52646         
     33    35        0.0000   762                      0.0000    54362         
     37    39        0.0000   742                      0.0000    55492         
     40    42        0.0000   738                      0.0000    57251         
     43    45        0.0000   765                      0.0000    60468         
Elapsed time = 45.68 sec. (48123.11 ticks, tree = 0.15 MB, solutions = 0)
     47    49        0.0000   753                      0.0000    62152         
     50    52        0.0000   743                      0.0000    62974         
     53    55        0.0000   737                      0.0000    65150         
     56    58        0.0000   989                      0.0000    68223         
     59    61        0.0000   748                      0.0000    69921         
     63    65        0.0000   837                      0.0000    72969         
     66    68        0.0000   758                      0.0000    75263         
     69    71        0.0000   962                      0.0000    78848         
     71    73        0.0000   709                      0.0000    80324         
     74    76        0.0000   667                      0.0000    81975         
Elapsed time = 57.82 sec. (60359.98 ticks, tree = 0.25 MB, solutions = 0)
     77    79        0.0000   906                      0.0000    85164         
     80    82        0.0000   704                      0.0000    86968         
     83    85        0.0000   729                      0.0000    90228         
     87    89        0.0000   890                      0.0000    94710         
     90    92        0.0000   688                      0.0000    97295         
     93    95        0.0000  1038                      0.0000   101266         
     97    99        0.0000   888                      0.0000   105395         
    100   102        0.0000   684                      0.0000   106332         
    103   105        0.0000   861                      0.0000   110317         
    107   109        0.0000   696                      0.0000   111214         
Elapsed time = 69.91 sec. (72257.67 ticks, tree = 0.35 MB, solutions = 0)
    110   112        0.0000   908                      0.0000   115781         
    114   116        0.0000   877                      0.0000   119916         
    118   120        0.0000   797                      0.0000   122435         
    120   122        0.0000   931                      0.0000   124139         
    124   126        0.0000   956                      0.0000   128802         
    127   129        0.0000   802                      0.0000   130104         
    130   132        0.0000   633                      0.0000   133105         
    133   135        0.0000   690                      0.0000   138074         
    137   139        0.0000   822                      0.0000   142507         
    140   142        0.0000   670                      0.0000   145909         
Elapsed time = 86.02 sec. (88191.83 ticks, tree = 0.45 MB, solutions = 0)
    144   146        0.0000   724                      0.0000   150560         
    148   150        0.0000   872                      0.0000   154436         
    152   154        0.0000   696                      0.0000   158328         
    156   158        0.0000   814                      0.0000   162848         
    159   161        0.0000   662                      0.0000   164231         
    162   164        0.0000   815                      0.0000   169459         
    166   168        0.0000   766                      0.0000   174848         
    170   172        0.0000   777                      0.0000   180355         
    173   175        0.0000   637                      0.0000   181502         
    176   178        0.0000   813                      0.0000   187291         
Elapsed time = 98.21 sec. (100182.08 ticks, tree = 0.55 MB, solutions = 0)
    180   182        0.0000   701                      0.0000   192160         
    184   186        0.0000   624                      0.0000   195631         
    187   189        0.0000   704                      0.0000   199203         
    191   193        0.0000   730                      0.0000   202223         
    194   196        0.0000   737                      0.0000   205234         
    197   199        0.0000   808                      0.0000   207285         
    201   203        0.0000   751                      0.0000   209883         
    204   206        0.0000   765                      0.0000   211109         
    208   210        0.0000   756                      0.0000   214207         
    211   213        0.0000   869                      0.0000   218658         
Elapsed time = 109.86 sec. (111724.77 ticks, tree = 0.66 MB, solutions = 0)
    215   217        0.0000   695                      0.0000   220963         
    218   220        0.0000   644                      0.0000   227739         
    220   222        0.0000   674                      0.0000   231051         
    223   225        0.0000   742                      0.0000   234704         
    227   229        0.0000   661                      0.0000   236275         
    231   231        0.0000   727                      0.0000   241071         
    236   234        0.0000   604                      0.0000   243175         
    242   235    infeasible                            0.0000   248711         
    246   239        0.0000   611                      0.0000   251289         
    250   243        0.0000   610                      0.0000   252697         
Elapsed time = 122.16 sec. (123643.26 ticks, tree = 0.75 MB, solutions = 0)
    254   245        0.0000   603                      0.0000   259788         
    259   246    infeasible                            0.0000   268931         
    263   246    infeasible                            0.0000   278496         
    267   246    infeasible                            0.0000   284580         
    271   246    infeasible                            0.0000   293492         
    272   247        0.0000   571                      0.0000   297245         
    275   250        0.0000   606                      0.0000   299287         
    279   250    infeasible                            0.0000   309788         
    283   252        0.0000   494                      0.0000   320742         
    288   253    infeasible                            0.0000   325957         
Elapsed time = 134.67 sec. (135110.70 ticks, tree = 0.78 MB, solutions = 0)
    293   256    infeasible                            0.0000   330259         
    299   260        0.0000   375                      0.0000   335880         
    307   262        0.0000   374                      0.0000   340517         
    313   264        0.0000   351                      0.0000   346048         
    320   267        0.0000   341                      0.0000   351911         
    326   271        0.0000   310                      0.0000   355109         
    333   274        0.0000   305                      0.0000   361253         
    340   277        0.0000   299                      0.0000   368723         
    346   281        0.0000   280                      0.0000   373189         
    367   294        0.0000   241                      0.0000   396331         
Elapsed time = 150.35 sec. (148806.10 ticks, tree = 0.91 MB, solutions = 0)
    396   297    infeasible                            0.0000   431411         
    422   303        0.0000   233                      0.0000   463977         
    449   313        0.0000   228                      0.0000   491549         
    476   319        0.0000   217                      0.0000   527580         
    505   322    infeasible                            0.0000   560838         
    538   321    infeasible                            0.0000   595502         
    566   328        0.0000   229                      0.0000   627683         
    598   328        0.0000   189                      0.0000   665848         
    627   325        0.0000   238                      0.0000   706617         
    654   333    infeasible                            0.0000   736746         
Elapsed time = 197.33 sec. (187847.42 ticks, tree = 1.04 MB, solutions = 0)
    682   345        0.0000   214                      0.0000   760917         
    716   349        0.0000   251                      0.0000   793060         
    750   352        0.0000   234                      0.0000   822492         
    780   354        0.0000   233                      0.0000   856103         
    814   358        0.0000   236                      0.0000   888636         
    849   361        0.0000   187                      0.0000   916160         
    886   360    infeasible                            0.0000   949483         
    920   362    infeasible                            0.0000   982731         
    952   365        0.0000   233                      0.0000  1019341         
    986   367        0.0000   211                      0.0000  1054415         
Elapsed time = 244.12 sec. (226987.53 ticks, tree = 1.14 MB, solutions = 0)
   1022   365    infeasible                            0.0000  1091223         
   1054   363    infeasible                            0.0000  1136316         
   1090   364        0.0000   248                      0.0000  1165490         
   1115   368        0.0000   247                      0.0000  1197047         
   1148   369    infeasible                            0.0000  1230629         
   1185   368        0.0000   219                      0.0000  1263380         
   1218   371    infeasible                            0.0000  1296938         
   1253   371        0.0000   223                      0.0000  1332320         
   1284   371        0.0000   210                      0.0000  1368433         
   1317   372        0.0000   209                      0.0000  1405891         
Elapsed time = 290.63 sec. (265623.70 ticks, tree = 1.15 MB, solutions = 0)
   1349   374    infeasible                            0.0000  1441998         
   1387   368        0.0000   166                      0.0000  1486101         
   1417   367        0.0000   270                      0.0000  1528072         
   1450   368        0.0000   208                      0.0000  1557496         
   1483   373    infeasible                            0.0000  1588312         
   1517   370        0.0000   197                      0.0000  1627636         
   1554   369    infeasible                            0.0000  1661098         
   1587   370        0.0000   211                      0.0000  1701715         
   1627   366        0.0000   227                      0.0000  1737886         
   1650   373        0.0000   246                      0.0000  1776541         
Elapsed time = 337.64 sec. (304499.97 ticks, tree = 1.16 MB, solutions = 0)
   1680   375        0.0000   195                      0.0000  1807990         
   1712   377        0.0000   175                      0.0000  1840455         
   1731   378        0.0000   151                      0.0000  1874613         
   1765   375        0.0000   226                      0.0000  1915416         
   1801   377        0.0000   223                      0.0000  1946841         
   1833   377        0.0000   213                      0.0000  1988348         
   1866   376    infeasible                            0.0000  2024169         
   1897   378        0.0000   211                      0.0000  2065037         
   1933   376        0.0000   225                      0.0000  2100864         
   1961   374    infeasible                            0.0000  2142920         
Elapsed time = 385.07 sec. (343821.16 ticks, tree = 1.16 MB, solutions = 0)
   1990   378    infeasible                            0.0000  2177089         

Performing restart 1

Repeating presolve.
Tried aggregator 1 time.
MIP Presolve modified 21675 coefficients.
Reduced MIP has 1758 rows, 7275 columns, and 76471 nonzeros.
Reduced MIP has 7275 binaries, 0 generals, 0 SOSs, and 0 indicators.
Presolve time = 0.07 sec. (73.78 ticks)
Tried aggregator 1 time.
Reduced MIP has 1758 rows, 7275 columns, and 76471 nonzeros.
Reduced MIP has 7275 binaries, 0 generals, 0 SOSs, and 0 indicators.
Presolve time = 0.06 sec. (47.28 ticks)
Represolve time = 0.46 sec. (290.87 ticks)
   2008     0        0.0000   405                     Cuts: 4  2210265         
   2008     0        0.0000   264                     Cuts: 5  2210838         
   2008     0        0.0000   307                   Cuts: 118  2213430         
   2008     2        0.0000   123                      0.0000  2213430         
   2010     4        0.0000   225                      0.0000  2223899         
   2017    11        0.0000   496                      0.0000  2233304         
   2030    24        0.0000   430                      0.0000  2240767         
   2041    35        0.0000   405                      0.0000  2247860         
   2051    45        0.0000   361                      0.0000  2257782         
   2058    52        0.0000   370                      0.0000  2265148         
   2068    62        0.0000   270                      0.0000  2272948         
   2076    70        0.0000   363                      0.0000  2281998         
Elapsed time = 457.92 sec. (417352.86 ticks, tree = 1.03 MB, solutions = 0)
   2088    82        0.0000   408                      0.0000  2291584         
   2099    91        0.0000   361                      0.0000  2310805         
   2109    99        0.0000   335                      0.0000  2323399         
   2118   100        0.0000   297                      0.0000  2346082         
   2128   107        0.0000   337                      0.0000  2358389         
   2140   115        0.0000   264                      0.0000  2372911         
   2148   114        0.0000   260                      0.0000  2389885         
   2160   123        0.0000   368                      0.0000  2407652         
   2180   130    infeasible                            0.0000  2439186         
   2205   135        0.0000   336                      0.0000  2475101         
Elapsed time = 501.81 sec. (457716.01 ticks, tree = 1.99 MB, solutions = 0)
   2232   143        0.0000   313                      0.0000  2497764         
   2272   147        0.0000   304                      0.0000  2516143         
   2309   154        0.0000   284                      0.0000  2531854         
   2353   161        0.0000   315                      0.0000  2546147         
   2384   174    infeasible                            0.0000  2560857         
   2403   189        0.0000   340                      0.0000  2587012         
   2423   197        0.0000   285                      0.0000  2611778         
   2456   204        0.0000   304                      0.0000  2629676         
   2497   207    infeasible                            0.0000  2641492         
   2513   217    infeasible                            0.0000  2663741         
Elapsed time = 546.10 sec. (496472.65 ticks, tree = 3.36 MB, solutions = 0)
   2535   227        0.0000   314                      0.0000  2690672         
   2564   232        0.0000   352                      0.0000  2712542         
   2598   236        0.0000   299                      0.0000  2735135         
   2622   245        0.0000   401                      0.0000  2755169         
   2633   256        0.0000   553                      0.0000  2767736         

Clique cuts applied:  3
Zero-half cuts applied:  11
Gomory fractional cuts applied:  3

Root node processing (before b&c):
  Real time             =   22.01 sec. (23373.42 ticks)
Sequential b&c:
  Real time             =  546.37 sec. (493405.87 ticks)
                          ------------
Total (root+branch&cut) =  568.37 sec. (516779.29 ticks)
Primal:	282
Dual:	300
Status:	Feasible
Time:	600.037
Sequence:
	0
